 100 
 
 23  36  47  38  27  40  26  42  30  19  16  29  42   4  16  30  50   9  42  11  22  46  11  31   4  47  39  19   4  24  50  39  29   2  25   8  37  24   5  32  46  17  18   3  10  17   6  11  38   3  20  49  42  26  16   3  48  46  37  30  28  23  28  25   8  42   5  22  14  28  23  26  37   2  44  14   2  41  40   3  45  30  35  45  38  17  10  42   5   6  13  20  17  35  17  13  31  15  14   9

 767

  18  12  11  12  10  11  14  14  11  21  13   7  18  13  10   1   3  25   7   5  13   9   9  10  13  22   5  12  24  21  21   1   8   1  18   7   2  25   3  21   3  18   9  12  12   3  15  12  25  15   6   7   8  17   2  20  11  16   5  17  15   1  16  18  23  14  25  25   9  15   4   7   6  20   7  17  20  13  21  24   1  24   3  11  11  23  16  18  11  22  23  18   3  15  19  24  17  18  24  25

